09-routing/solutions/XSH-n20-k4-10.opt.sol
Route #1: 5 8 16 17 19
Route #2: 7 10 13 18 15 4
Route #3: 20 6 14 11 2
Route #4: 1 12 3 9
Cost 737
